num_offers = 30;
num_halls = 10;
start=[54,3,6,1,54,14,48,34,44,10,2,24,32,61,5,33,38,22,46,70,7,13,72,66,77,61,42,64,29,9];
end=[63,13,19,75,77,47,53,78,48,16,17,100,42,85,94,71,60,73,83,74,98,87,93,87,94,76,72,71,58,75];
price=[328,862,549,3038,957,2329,130,760,221,149,602,7054,602,1653,5307,939,2229,1836,1874,490,1378,5144,587,2191,907,833,1815,661,2617,2749];
requirement=[299,353,630,342,834,979,287,362,957,983,543,334,739,949,385,571,660,612,311,625,359,951,954,773,611,258,310,266,636,364];
capacity=[262,213,821,846,689,301,777,749,499,493];
